unsat
(:added-eqs                       9694
 :arith-eq-adapter                148
 :arith-bound-propagations-lp     644
 :arith-branch                    27
 :arith-conflicts                 1011
 :arith-cube-calls                10
 :arith-diseq                     2771
 :arith-fixed-eqs                 1978
 :arith-gcd-calls                 249
 :arith-gomory-cuts               23
 :arith-grobner-calls             183
 :arith-grobner-conflicts         106
 :arith-hnf-calls                 2
 :arith-horner-calls              50
 :arith-horner-conflicts          2
 :arith-horner-cross-nested-forms 11242
 :arith-lower                     5721
 :arith-make-feasible             4894
 :arith-max-columns               223
 :arith-max-rows                  90
 :arith-nla-add-bounds            57
 :arith-nla-lemmas                323
 :arith-nla-propagate-bounds      388
 :arith-nla-propagate-eq          4800
 :arith-nra-calls                 112
 :arith-offset-eqs                228
 :arith-patches                   249
 :arith-patches-success           208
 :arith-upper                     10647
 :binary-propagations             28965
 :conflicts                       1084
 :decisions                       11720
 :del-clause                      1235
 :elim-unconstrained              3
 :final-checks                    476
 :max-memory                      84.61
 :memory                          56.11
 :minimized-lits                  2317
 :mk-bool-var                     1618
 :mk-clause                       2278
 :mk-clause-binary                953
 :nlsat-conflicts                 9098
 :nlsat-decisions                 167
 :nlsat-propagations              188760
 :nlsat-stages                    97415
 :num-allocs                      975070711
 :num-checks                      1
 :propagations                    46791
 :restarts                        9
 :rlimit-count                    3871891
 :sat-backjumps                   501
 :sat-conflicts                   501
 :sat-decisions                   3223
 :sat-del-clause                  48145
 :sat-elim-bool-vars-res          8823
 :sat-elim-clauses                367
 :sat-elim-literals               1188
 :sat-minimized-lits              868
 :sat-mk-clause-2ary              27040
 :sat-mk-clause-3ary              14669
 :sat-mk-clause-nary              75345
 :sat-mk-var                      18599
 :sat-probing-assigned            83
 :sat-propagations-2ary           173617
 :sat-propagations-nary           139919
 :sat-restarts                    5
 :sat-scc-elim-binary             157
 :sat-scc-elim-vars               92
 :sat-subs-resolution             952
 :sat-subs-resolution-dyn         65
 :sat-subsumed                    10965
 :sat-units                       103
 :time                            1.46
 :total-time                      1.47)
